
Gurobi 11.0.1 (win64) logging started Mon Apr  1 12:50:59 2024

Set parameter LogFile to value "C:\Projetos\Job_Rotation_Algorithms\Outputs\GurobiLogs\gurobi_log-output-76_wee-c22-BorbaRittModel-NoExtraConstraint-2.log"
Gurobi Optimizer version 11.0.1 build v11.0.1rc0 (win64 - Windows 10.0 (19045.2))

CPU model: 11th Gen Intel(R) Core(TM) i7-1165G7 @ 2.80GHz, instruction set [SSE2|AVX|AVX2|AVX512]
Thread count: 4 physical cores, 8 logical processors, using up to 1 threads


Gurobi 11.0.1 (win64) logging started Mon Apr  1 21:38:44 2024

Set parameter LogFile to value "C:\Projetos\Job_Rotation_Algorithms\Outputs\GurobiLogs\gurobi_log-output-76_wee-c22-BorbaRittModel-NoExtraConstraint-2.log"
Gurobi Optimizer version 11.0.1 build v11.0.1rc0 (win64 - Windows 10.0 (19045.2))

CPU model: 11th Gen Intel(R) Core(TM) i7-1165G7 @ 2.80GHz, instruction set [SSE2|AVX|AVX2|AVX512]
Thread count: 4 physical cores, 8 logical processors, using up to 1 threads


Gurobi 11.0.1 (win64) logging started Thu Apr  4 23:36:06 2024

Set parameter LogFile to value "C:\Projetos\Job_Rotation_Algorithms\Outputs\GurobiLogs\gurobi_log-output-76_wee-c22-BorbaRittModel-NoExtraConstraint-2.log"
Gurobi Optimizer version 11.0.1 build v11.0.1rc0 (win64 - Windows 10.0 (19045.2))

CPU model: 11th Gen Intel(R) Core(TM) i7-1165G7 @ 2.80GHz, instruction set [SSE2|AVX|AVX2|AVX512]
Thread count: 4 physical cores, 8 logical processors, using up to 1 threads


Gurobi 11.0.1 (win64) logging started Sat Apr  6 13:06:34 2024

Set parameter LogFile to value "C:\Projetos\Job_Rotation_Algorithms\Outputs\GurobiLogs\gurobi_log-output-76_wee-c22-BorbaRittModel-NoExtraConstraint-2.log"
Gurobi Optimizer version 11.0.1 build v11.0.1rc0 (win64 - Windows 10.0 (19045.2))

CPU model: 11th Gen Intel(R) Core(TM) i7-1165G7 @ 2.80GHz, instruction set [SSE2|AVX|AVX2|AVX512]
Thread count: 4 physical cores, 8 logical processors, using up to 1 threads


Gurobi 11.0.1 (win64) logging started Sun Apr  7 02:38:29 2024

Set parameter LogFile to value "C:\Projetos\Job_Rotation_Algorithms\Outputs\GurobiLogs\gurobi_log-output-76_wee-c22-BorbaRittModel-NoExtraConstraint-2.log"
Gurobi Optimizer version 11.0.1 build v11.0.1rc0 (win64 - Windows 10.0 (19045.2))

CPU model: 11th Gen Intel(R) Core(TM) i7-1165G7 @ 2.80GHz, instruction set [SSE2|AVX|AVX2|AVX512]
Thread count: 4 physical cores, 8 logical processors, using up to 1 threads


Gurobi 11.0.1 (win64) logging started Sun Apr  7 09:51:28 2024

Set parameter LogFile to value "C:\Projetos\Job_Rotation_Algorithms\Outputs\GurobiLogs\gurobi_log-output-76_wee-c22-BorbaRittModel-NoExtraConstraint-2.log"
Gurobi Optimizer version 11.0.1 build v11.0.1rc0 (win64 - Windows 10.0 (19045.2))

CPU model: 11th Gen Intel(R) Core(TM) i7-1165G7 @ 2.80GHz, instruction set [SSE2|AVX|AVX2|AVX512]
Thread count: 4 physical cores, 8 logical processors, using up to 1 threads


Gurobi 11.0.1 (win64) logging started Wed Apr 10 17:40:25 2024

Set parameter LogFile to value "C:\Projetos\Job_Rotation_Algorithms\Outputs\GurobiLogs\gurobi_log-output-76_wee-c22-BorbaRittModel-NoExtraConstraint-2.log"
Gurobi Optimizer version 11.0.1 build v11.0.1rc0 (win64 - Windows 10.0 (19045.2))

CPU model: 11th Gen Intel(R) Core(TM) i7-1165G7 @ 2.80GHz, instruction set [SSE2|AVX|AVX2|AVX512]
Thread count: 4 physical cores, 8 logical processors, using up to 1 threads


Gurobi 11.0.1 (win64) logging started Thu Apr 11 01:45:10 2024

Set parameter LogFile to value "C:\Projetos\Job_Rotation_Algorithms\Outputs\GurobiLogs\gurobi_log-output-76_wee-c22-BorbaRittModel-NoExtraConstraint-2.log"
Gurobi Optimizer version 11.0.1 build v11.0.1rc0 (win64 - Windows 10.0 (19045.2))

CPU model: 11th Gen Intel(R) Core(TM) i7-1165G7 @ 2.80GHz, instruction set [SSE2|AVX|AVX2|AVX512]
Thread count: 4 physical cores, 8 logical processors, using up to 1 threads


Gurobi 11.0.1 (win64) logging started Sun Apr 21 03:02:09 2024

Set parameter LogFile to value "C:\Projetos\Job_Rotation_Algorithms\Outputs\GurobiLogs\gurobi_log-output-76_wee-c22-BorbaRittModel-NoExtraConstraint-2.log"
Gurobi Optimizer version 11.0.1 build v11.0.1rc0 (win64 - Windows 10.0 (19045.2))

CPU model: 11th Gen Intel(R) Core(TM) i7-1165G7 @ 2.80GHz, instruction set [SSE2|AVX|AVX2|AVX512]
Thread count: 4 physical cores, 8 logical processors, using up to 1 threads


Gurobi 11.0.1 (win64) logging started Fri Apr 26 07:44:04 2024

Set parameter LogFile to value "C:\Projetos\Job_Rotation_Algorithms\Outputs\GurobiLogs\gurobi_log-output-76_wee-c22-BorbaRittModel-NoExtraConstraint-2.log"
Gurobi Optimizer version 11.0.1 build v11.0.1rc0 (win64 - Windows 10.0 (19045.2))

CPU model: 11th Gen Intel(R) Core(TM) i7-1165G7 @ 2.80GHz, instruction set [SSE2|AVX|AVX2|AVX512]
Thread count: 4 physical cores, 8 logical processors, using up to 1 threads


Gurobi 11.0.1 (win64) logging started Sat Apr 27 04:35:12 2024

Set parameter LogFile to value "C:\Projetos\Job_Rotation_Algorithms\Outputs\GurobiLogs\gurobi_log-output-76_wee-c22-BorbaRittModel-NoExtraConstraint-2.log"
Gurobi Optimizer version 11.0.1 build v11.0.1rc0 (win64 - Windows 10.0 (19045.2))

CPU model: 11th Gen Intel(R) Core(TM) i7-1165G7 @ 2.80GHz, instruction set [SSE2|AVX|AVX2|AVX512]
Thread count: 4 physical cores, 8 logical processors, using up to 1 threads


Gurobi 11.0.1 (win64) logging started Sat Apr 27 14:53:20 2024

Set parameter LogFile to value "C:\Projetos\Job_Rotation_Algorithms\Outputs\GurobiLogs\gurobi_log-output-76_wee-c22-BorbaRittModel-NoExtraConstraint-2.log"
Gurobi Optimizer version 11.0.1 build v11.0.1rc0 (win64 - Windows 10.0 (19045.2))

CPU model: 11th Gen Intel(R) Core(TM) i7-1165G7 @ 2.80GHz, instruction set [SSE2|AVX|AVX2|AVX512]
Thread count: 4 physical cores, 8 logical processors, using up to 1 threads


Gurobi 11.0.1 (win64) logging started Sun May  5 20:19:33 2024

Set parameter LogFile to value "C:\Projetos\Job_Rotation_Algorithms\Outputs\GurobiLogs\gurobi_log-output-76_wee-c22-BorbaRittModel-NoExtraConstraint-2.log"
Gurobi Optimizer version 11.0.1 build v11.0.1rc0 (win64 - Windows 10.0 (19045.2))

CPU model: 11th Gen Intel(R) Core(TM) i7-1165G7 @ 2.80GHz, instruction set [SSE2|AVX|AVX2|AVX512]
Thread count: 4 physical cores, 8 logical processors, using up to 1 threads

WLS license 901038 - registered to Bitka Analytics
Optimize a model with 59235 rows, 4454 columns and 181860 nonzeros
Model fingerprint: 0xe3d352b0
Variable types: 2 continuous, 4452 integer (4452 binary)
Coefficient statistics:
  Matrix range     [1e+00, 5e+01]
  Objective range  [1e+00, 1e+00]
  Bounds range     [1e+00, 4e+01]
  RHS range        [1e+00, 4e+01]
Presolve removed 16080 rows and 706 columns
Presolve time: 1.18s
Presolved: 43155 rows, 3748 columns, 132681 nonzeros
Variable types: 0 continuous, 3748 integer (3747 binary)
Root relaxation presolved: 3748 rows, 46903 columns, 136429 nonzeros


Root relaxation: objective 1.500000e+02, 2056 iterations, 0.24 seconds (0.16 work units)

    Nodes    |    Current Node    |     Objective Bounds      |     Work
 Expl Unexpl |  Obj  Depth IntInf | Incumbent    BestBd   Gap | It/Node Time

     0     0  150.00000    0  542          -  150.00000      -     -    5s
     0     0  150.00000    0  769          -  150.00000      -     -    6s
     0     0  150.00000    0  748          -  150.00000      -     -    7s
     0     0  150.00000    0  450          -  150.00000      -     -   20s
     0     0  150.00000    0  406          -  150.00000      -     -   20s
     0     0  150.00000    0  473          -  150.00000      -     -   26s
     0     0  150.00000    0  446          -  150.00000      -     -   26s
     0     0  150.00000    0  493          -  150.00000      -     -   31s
     0     0  150.00000    0  488          -  150.00000      -     -   31s
     0     0  150.00000    0  623          -  150.00000      -     -   37s
     0     0  150.00000    0  535          -  150.00000      -     -   37s
     0     0  150.00000    0  555          -  150.00000      -     -   44s
     0     0  150.00000    0  581          -  150.00000      -     -   45s
     0     0  150.00000    0  488          -  150.00000      -     -   52s
     0     0  150.00000    0  488          -  150.00000      -     -   56s
     0     2  150.00000    0  488          -  150.00000      -     -   68s
    13    15  150.00000    8  304          -  150.00000      -   559   70s
    36    36  150.00000   23  368          -  150.00000      -   527   75s
    66    66  150.00000   42  334          -  150.00000      -   479   80s
    96    96  150.00000   59  540          -  150.00000      -   497   85s
   116   116  150.00000   70  540          -  150.00000      -   487   90s
   149   148  150.00000   94  407          -  150.00000      -   452   95s
   197   180  150.00000  127  445          -  150.00000      -   402  100s
   220   193  150.00000   48  408          -  150.00000      -   409  105s
   268   239  150.00000   84  456          -  150.00000      -   394  110s
   317   279  150.00000   59  464          -  150.00000      -   377  115s
   384   343  150.00000  105  344          -  150.00000      -   361  120s
   463   381  150.00000   58  364          -  150.00000      -   341  125s
   529   414  150.00000  102  340          -  150.00000      -   331  130s
   597   461  150.00000   54  488          -  150.00000      -   324  136s
   600   463  150.00000   70  506          -  150.00000      -   323  146s
   602   464  150.00000   40  336          -  150.00000      -   321  159s
   603   465  150.00000  118  407          -  150.00000      -   321  160s
   604   466  150.00000   97  557          -  150.00000      -   320  167s
   606   467  150.00000  100  319          -  150.00000      -   319  177s
   608   468  150.00000  113  447          -  150.00000      -   318  185s
   610   470  150.00000   45  330          -  150.00000      -   317  190s
   612   471  150.00000  113  328          -  150.00000      -   316  197s
   614   472  150.00000   12  286          -  150.00000      -   315  202s
   616   474  150.00000  119  464          -  150.00000      -   314  208s
   617   474  150.00000    2  420          -  150.00000      -   314  210s
   618   475  150.00000   22  368          -  150.00000      -   313  216s
   620   476  150.00000   53  352          -  150.00000      -   312  223s
   624   481  150.00000   17  276          -  150.00000      -   232  225s
   638   490  150.00000   24  394          -  150.00000      -   235  230s
   648   497  150.00000   29  231          -  150.00000      -   233  235s
   650   498  150.00000   30  225          -  150.00000      -   233  241s
   680   518  150.00000   45  348          -  150.00000      -   235  245s
   713   536 infeasible   62               -  150.00000      -   239  250s
   741   553  150.00000   76  310          -  150.00000      -   243  255s
   776   566 infeasible   93               -  150.00000      -   247  260s
   803   570  150.00000   37  264          -  150.00000      -   251  265s
   851   598 infeasible   61               -  150.00000      -   255  270s
   877   616  150.00000   74  296          -  150.00000      -   264  275s
   908   626  150.00000   89  229          -  150.00000      -   270  280s
   934   630  150.00000   57  487          -  150.00000      -   281  285s
   970   644  149.00000   75  270          -  150.00000      -   290  290s
  1012   664 infeasible   96               -  150.00000      -   296  295s
  1048   662 infeasible   64               -  150.00000      -   304  300s
  1092   673  150.00000   73  326          -  150.00000      -   311  305s
  1134   671 infeasible   97               -  150.00000      -   320  310s
  1168   662 infeasible  105               -  150.00000      -   328  315s
  1208   670  150.00000   75  325          -  150.00000      -   330  320s
  1247   696  150.00000   92  309          -  150.00000      -   335  325s
  1272   699 infeasible  105               -  150.00000      -   343  330s
  1273   700  150.00000  104  572          -  150.00000      -   344  346s
  1288   696  149.00000   70  435          -  150.00000      -   347  350s
  1314   707  149.00000   90  450          -  150.00000      -   347  355s
  1334   700 infeasible   96               -  150.00000      -   352  360s
  1361   696 infeasible   68               -  150.00000      -   354  365s
  1412   710  149.00000   78  322          -  150.00000      -   351  370s
  1461   731  149.00000   98  433          -  150.00000      -   354  375s
  1514   740  150.00000   75  404          -  150.00000      -   356  380s
  1559   754  150.00000   73  399          -  150.00000      -   358  385s
  1593   769 infeasible   91               -  150.00000      -   362  390s
  1647   759 infeasible   66               -  150.00000      -   361  395s
  1694   774  150.00000   76  290          -  150.00000      -   358  400s
  1719   787  150.00000   91  364          -  150.00000      -   365  405s
  1753   804  150.00000  100  336          -  150.00000      -   369  410s
  1792   814  150.00000   62  538          -  150.00000      -   373  415s
  1826   830  148.75155   87  595          -  150.00000      -   374  420s
  1861   854  150.00000  106  249          -  150.00000      -   372  425s
  1912   884  150.00000  137  271          -  150.00000      -   371  430s
  1942   890 infeasible  148               -  150.00000      -   378  435s
  1983   905 infeasible   55               -  150.00000      -   376  440s
  2034   937  150.00000   93  291          -  150.00000      -   373  445s
  2076   970  150.00000  107  243          -  150.00000      -   374  450s
  2115   985  150.00000   48  328          -  150.00000      -   375  455s
  2162  1026  150.00000   74  305          -  150.00000      -   375  460s
  2210  1054  150.00000  102  291          -  150.00000      -   376  465s
  2267  1065  150.00000   95  188          -  150.00000      -   379  470s
  2308  1092  150.00000  102  246          -  150.00000      -   378  475s
  2353  1115  150.00000   72  348          -  150.00000      -   379  480s
  2397  1155  150.00000   98  378          -  150.00000      -   380  485s
  2430  1184  150.00000  111  317          -  150.00000      -   382  490s
  2451  1205  150.00000  116  413          -  150.00000      -   387  495s
  2462  1214  150.00000  118  494          -  150.00000      -   391  501s
  2467  1219  150.00000  115  452          -  150.00000      -   397  505s
  2481  1233  150.00000  121  511          -  150.00000      -   400  510s
  2496  1246  149.99805  127  615          -  150.00000      -   406  515s
  2505  1255  149.99989  130  544          -  150.00000      -   410  520s
  2524  1274  149.34631  133  553          -  150.00000      -   411  525s
  2551  1275  150.00000   65  336          -  150.00000      -   414  530s
  2599  1321  150.00000   97  249          -  150.00000      -   412  535s
  2629  1343 infeasible  108               -  150.00000      -   416  540s
  2658  1358 infeasible  123               -  150.00000      -   419  545s
  2719  1407  150.00000   62  276          -  150.00000      -   414  550s
  2773  1457 infeasible   94               -  150.00000      -   412  555s
  2797  1477  150.00000  105  472          -  150.00000      -   414  560s
  2818  1494  150.00000  115  435          -  150.00000      -   416  565s
  2845  1507  150.00000   74  319          -  150.00000      -   417  570s
  2885  1547  150.00000   98  369          -  150.00000      -   415  575s
  2917  1575 infeasible  116               -  150.00000      -   416  580s
  2928  1578 infeasible  121               -  150.00000      -   420  585s
  2941  1577  149.00000  124  382          -  150.00000      -   424  590s
  2993  1619  150.00000   81  292          -  150.00000      -   422  595s
  3030  1652  150.00000   97  320          -  150.00000      -   421  600s
  3053  1669 infeasible  114               -  150.00000      -   421  605s
  3086  1688  149.00000   70  286          -  150.00000      -   421  610s
  3123  1713 infeasible   95               -  150.00000      -   419  615s
  3164  1732  150.00000   64  206          -  150.00000      -   416  620s
  3207  1773  150.00000   98  281          -  150.00000      -   413  625s
  3247  1813  150.00000  118  218          -  150.00000      -   411  630s
  3286  1832 infeasible  133               -  150.00000      -   410  635s
  3325  1861  150.00000   78  310          -  150.00000      -   408  640s
  3359  1891  150.00000   98  290          -  150.00000      -   407  645s
  3384  1898  150.00000  107  378          -  150.00000      -   408  650s
  3405  1899 infeasible  114               -  150.00000      -   409  655s
  3434  1928  150.00000   84  260          -  150.00000      -   407  677s
  3448  1942  150.00000   92  293          -  150.00000      -   407  680s
  3480  1970  150.00000  105  421          -  150.00000      -   406  685s
  3504  1988  150.00000  120  470          -  150.00000      -   406  690s
  3521  1995 infeasible  126               -  150.00000      -   407  695s
  3538  1996 infeasible  135               -  150.00000      -   409  700s
  3584  2036  150.00000   76  373          -  150.00000      -   407  705s
  3616  2062  150.00000   97  386          -  150.00000      -   407  710s
  3640  2076  150.00000   99  338          -  150.00000      -   408  715s
  3665  2097  150.00000  115  289          -  150.00000      -   409  720s
  3700  2110  150.00000  125  278          -  150.00000      -   408  725s
  3722  2110 infeasible  132               -  150.00000      -   410  730s
  3760  2140  150.00000   82  488          -  150.00000      -   409  735s
  3802  2180  150.00000  100  232          -  150.00000      -   407  740s
  3832  2200  150.00000  107  318          -  150.00000      -   408  745s
  3859  2225  150.00000  123  332          -  150.00000      -   408  750s
  3887  2239  149.00000   67  213          -  150.00000      -   408  755s
  3938  2286  149.00000   98  283          -  150.00000      -   406  760s
  3981  2313  149.00000  118  430          -  150.00000      -   405  765s
  4032  2354  150.00000  103  395          -  150.00000      -   404  770s
  4065  2385  150.00000  126  341          -  150.00000      -   403  775s
  4095  2415  150.00000  137  306          -  150.00000      -   404  780s
  4117  2417 infeasible  145               -  150.00000      -   406  785s
  4175  2471  149.00000  101  306          -  150.00000      -   403  790s
  4207  2499  149.00000  122  397          -  150.00000      -   403  795s
  4223  2501  149.00000  123  451          -  150.00000      -   405  800s
  4278  2548  150.00000   89  288          -  150.00000      -   403  805s
  4326  2596  150.00000  113  350          -  150.00000      -   401  810s
  4349  2611  149.00000  124  424          -  150.00000      -   402  815s
  4382  2626  149.00000   61  183          -  150.00000      -   402  820s
  4454  2672  149.00000  103  282          -  150.00000      -   399  825s
  4507  2699  150.00000   67  314          -  150.00000      -   397  830s
  4569  2761  150.00000   86  340          -  150.00000      -   395  835s
  4607  2793  150.00000   97  431          -  150.00000      -   395  840s
  4633  2813 infeasible  116               -  150.00000      -   395  845s
  4654  2820  150.00000  122  429          -  150.00000      -   397  850s
  4706  2860  150.00000   79  233          -  150.00000      -   396  855s
  4751  2905  150.00000  104  321          -  150.00000      -   395  860s
  4786  2938 infeasible  119               -  150.00000      -   395  865s
  4807  2955  150.00000  130  339          -  150.00000      -   396  870s
  4823  2965  150.00000  135  422          -  150.00000      -   397  875s
  4834  2972  150.00000  138  379          -  150.00000      -   400  880s
  4844  2970 infeasible  142               -  150.00000      -   403  885s
  4900  3014  150.00000   84  263          -  150.00000      -   401  890s
  4938  3052  150.00000  109  426          -  150.00000      -   401  895s
  4954  3060  149.97404  116  437          -  150.00000      -   403  900s
  4972  3066  149.00000  119  335          -  150.00000      -   405  905s
  5007  3079 infeasible  137               -  150.00000      -   405  910s
  5050  3116  150.00000   98  468          -  150.00000      -   405  915s
  5084  3144  150.00000  117  324          -  150.00000      -   405  920s
  5108  3166  150.00000  131  342          -  150.00000      -   404  925s
  5144  3190  150.00000  150  369          -  150.00000      -   404  930s
  5186  3210  149.00000   73  239          -  150.00000      -   404  935s
  5247  3257 infeasible  117               -  150.00000      -   403  940s
  5283  3281  149.00000  129  349          -  150.00000      -   403  945s
  5311  3301 infeasible  140               -  150.00000      -   404  950s
  5359  3341  150.00000   98  324          -  150.00000      -   403  955s
H 5378  3356                     134.0000000  150.00000  11.9%   403  968s
H 5378  3356                     135.0000000  150.00000  11.1%   403  968s
H 5378  3356                     136.0000000  150.00000  10.3%   403  968s
H 5378  3356                     141.0000000  150.00000  6.38%   403  968s
  5391  3369  150.00000  117  375  141.00000  150.00000  6.38%   403  970s
H 5404  3375                     143.0000000  150.00000  4.90%   403  972s
  5417  3380  149.00000   73  508  143.00000  150.00000  4.90%   404  975s
H 5432  3393                     145.0000000  150.00000  3.45%   404  977s
H 5456  3405                     147.0000000  150.00000  2.04%   403  979s
  5459  3410  150.00000   85  222  147.00000  150.00000  2.04%   403  980s
  5517  3450  150.00000   96  310  147.00000  150.00000  2.04%   402  985s
  5554  3485  148.66667  132  454  147.00000  150.00000  2.04%   402  990s
  5593  3496  150.00000  110  246  147.00000  150.00000  2.04%   403  995s
  5641  3538  149.00000  155  455  147.00000  150.00000  2.04%   402 1000s
  5675  3555  149.00000   75  345  147.00000  150.00000  2.04%   403 1005s
H 5717  3566                     148.0000000  150.00000  1.35%   400 1006s
  5768  3609  150.00000   60  264  148.00000  150.00000  1.35%   398 1010s
  5807  3648  149.00000   78  355  148.00000  150.00000  1.35%   398 1015s
  5856  3695  149.00000   93  372  148.00000  150.00000  1.35%   397 1020s
  5886  3715 infeasible  106       148.00000  150.00000  1.35%   398 1025s
  5902  3719  149.00000  108  440  148.00000  150.00000  1.35%   400 1030s
  5925  3730  149.00000   74  224  148.00000  150.00000  1.35%   400 1035s
  5964  3765  150.00000  100  338  148.00000  150.00000  1.35%   400 1040s
  6001  3802  150.00000  120  329  148.00000  150.00000  1.35%   399 1045s
  6029  3828  150.00000  131  382  148.00000  150.00000  1.35%   400 1050s
  6053  3849  150.00000  148  365  148.00000  150.00000  1.35%   400 1055s
  6070  3855 infeasible  152       148.00000  150.00000  1.35%   401 1060s
  6091  3861  149.00000   69  598  148.00000  150.00000  1.35%   402 1065s
  6104  3866  150.00000  105  427  148.00000  150.00000  1.35%   404 1070s
  6133  3888  149.00000  129  494  148.00000  150.00000  1.35%   403 1075s
  6173  3920  149.00000  105  477  148.00000  150.00000  1.35%   402 1080s
  6195  3916  150.00000   61  232  148.00000  150.00000  1.35%   403 1085s
  6263  3960 infeasible   64       148.00000  150.00000  1.35%   401 1090s
  6275  3965  150.00000  101  503  148.00000  150.00000  1.35%   402 1095s
  6294  3974 infeasible  114       148.00000  150.00000  1.35%   403 1100s
  6312  3983  149.00000   82  409  148.00000  150.00000  1.35%   404 1105s
H 6322  2931                     149.0000000  150.00000  0.67%   404 1107s
  6324  2929  150.00000   60  488  149.00000  150.00000  0.67%   404 1112s
  6326  2930  150.00000  103  255  149.00000  150.00000  0.67%   404 1118s
  6327  2931  150.00000   94  230  149.00000  150.00000  0.67%   404 1130s
  6329  2932  150.00000  109  254  149.00000  150.00000  0.67%   403 1137s
  6331  2934  150.00000   78  195  149.00000  150.00000  0.67%   403 1149s
  6332  2934  150.00000   22  181  149.00000  150.00000  0.67%   403 1150s
  6333  2935  150.00000   72  223  149.00000  150.00000  0.67%   403 1155s
  6335  2936  150.00000  110  199  149.00000  150.00000  0.67%   403 1160s
  6337  2938  150.00000  106  180  149.00000  150.00000  0.67%   403 1169s
  6338  2938  150.00000   67  213  149.00000  150.00000  0.67%   403 1170s
  6339  2939  150.00000  116  270  149.00000  150.00000  0.67%   403 1179s
  6340  2940  150.00000  120  304  149.00000  150.00000  0.67%   403 1182s
  6341  2940  150.00000   71  180  149.00000  150.00000  0.67%   403 1188s
  6343  2942  150.00000   76  206  149.00000  150.00000  0.67%   403 1193s
  6345  2943  150.00000   80  123  149.00000  150.00000  0.67%   402 1202s
  6347  2944  150.00000   65  138  149.00000  150.00000  0.67%   402 1210s
  6348  2945  150.00000   78  122  149.00000  150.00000  0.67%   402 1217s
  6349  2946  150.00000   86  122  149.00000  150.00000  0.67%   402 1220s
  6371  2962  150.00000   35  160  149.00000  150.00000  0.67%   428 1225s
  6409  2988  150.00000   54  152  149.00000  150.00000  0.67%   426 1230s
  6458  3020  150.00000   79  215  149.00000  150.00000  0.67%   424 1235s
  6490  3030  150.00000   34  216  149.00000  150.00000  0.67%   423 1240s
  6553  3070  150.00000   66  148  149.00000  150.00000  0.67%   420 1245s
  6591  3095  150.00000   85  169  149.00000  150.00000  0.67%   419 1250s
  6611  3108  150.00000   95  159  149.00000  150.00000  0.67%   419 1255s
  6631  3110  150.00000   27   88  149.00000  150.00000  0.67%   419 1260s
  6675  3139  150.00000   49  122  149.00000  150.00000  0.67%   417 1265s
  6709  3162  150.00000   66  196  149.00000  150.00000  0.67%   416 1270s
  6744  3185  150.00000   84  221  149.00000  150.00000  0.67%   415 1275s
  6780  3209  150.00000  102  212  149.00000  150.00000  0.67%   414 1280s
  6802  3224  150.00000  113  191  149.00000  150.00000  0.67%   414 1285s
H 6817  2648                     150.0000000  150.00000  0.00%   414 1287s

Cutting planes:
  Gomory: 2
  Lift-and-project: 1
  Cover: 6
  Clique: 12
  MIR: 2
  StrongCG: 1
  Flow cover: 12
  GUB cover: 4
  Zero half: 9
  RLT: 28
  BQP: 26

Explored 6818 nodes (3127560 simplex iterations) in 1287.68 seconds (1339.72 work units)
Thread count was 1 (of 8 available processors)

Solution count 10: 150 149 148 ... 134

Optimal solution found (tolerance 1.00e-03)
Best objective 1.500000000000e+02, best bound 1.500000000000e+02, gap 0.0000%
